18 78 29 16 13 
95 7 38 46 6 56 35 55 70 
42 62 9 19 85 
44 92 75 37 10 
59 8 86 84 66 94 50 
5 53 67 
69 36 88 90 51 43 74 60 1 77 25 
27 
63 21 39 79 81 11 87 97 41 3 
2 52 72 99 91 58 
40 49 24 4 
14 33 61 15 
71 45 12 
82 23 98 20 17 
96 54 100 
83 28 31 64 65 47 76 30 22 57 73 34 26 68 32 80 89 93 48 

